0 0 0 0
0 1 1 0
0 2 0 0
0 3 1 0
0 4 0 7
0 5 0 4
0 6 1 4
0 7 1 4
0 8 1 2
0 9 0 6
0 10 0 6
0 11 0 11
0 12 2 7
0 13 0 2
0 14 1 14
0 15 2 7
0 16 1 15
0 17 1 13
0 18 0 16
0 19 0 21
0 20 2 10
0 21 0 22
0 22 0 22
0 23 1 16
0 24 0 18
0 25 0 24
0 26 1 21
0 27 2 23
0 28 1 31
0 29 1 28
0 30 2 28
0 31 0 37
